
Gurobi 10.0.0 (linux64) logging started Fri Nov 25 12:09:28 2022

Set parameter LogFile to value "../results/k04_n100_d005/k04_n100_d003_mug100_1_binary_BQO_log.txt"
Gurobi Optimizer version 10.0.0 build v10.0.0rc2 (linux64)

CPU model: Intel(R) Xeon(R) CPU E5-2630 v4 @ 2.20GHz, instruction set [SSE2|AVX|AVX2]
Thread count: 20 physical cores, 40 logical processors, using up to 10 threads

Optimize a model with 100 rows, 400 columns and 400 nonzeros
Model fingerprint: 0x64fd8c4e
Model has 664 quadratic objective terms
Variable types: 0 continuous, 400 integer (400 binary)
Coefficient statistics:
  Matrix range     [1e+00, 1e+00]
  Objective range  [0e+00, 0e+00]
  QObjective range [2e+00, 2e+00]
  Bounds range     [1e+00, 1e+00]
  RHS range        [1e+00, 1e+00]
Found heuristic solution: objective -0.0000000
Presolve removed 1 rows and 4 columns
Presolve time: 0.43s
Presolved: 747 rows, 1044 columns, 2340 nonzeros
Variable types: 0 continuous, 1044 integer (1044 binary)

Root relaxation: objective 1.660000e+02, 200 iterations, 0.00 seconds (0.00 work units)

    Nodes    |    Current Node    |     Objective Bounds      |     Work
 Expl Unexpl |  Obj  Depth IntInf | Incumbent    BestBd   Gap | It/Node Time

H    0     0                     166.0000000  166.00000  0.00%     -    0s
     0     0  166.00000    0  144  166.00000  166.00000  0.00%     -    0s

Explored 1 nodes (200 simplex iterations) in 0.45 seconds (0.11 work units)
Thread count was 10 (of 40 available processors)

Solution count 2: 166 -0 

Optimal solution found (tolerance 0.00e+00)
Best objective 1.660000000000e+02, best bound 1.660000000000e+02, gap 0.0000%
